aux_benchmarks/lp2sat/smokers_5_5_prob.lp.lp.cnf
p cnf 11 12
7 0
8 0
9 0
10 0
11 0
-1 0
-1 0
-2 0
-3 0
-4 0
-5 0
-6 0
c p auxilliary 1 2 3 4 5 6 0
