aux_benchmarks/smokers/smokers_5_5_prob.lp.cnf
p cnf 10 15
6 0
-1 6 0
1 -6 0
7 0
-2 7 0
2 -7 0
8 0
-3 8 0
3 -8 0
9 0
-4 9 0
4 -9 0
10 0
-5 10 0
5 -10 0
c p weight 1 1.0 0
c p weight -1 1.0 0
c p weight 2 1.0 0
c p weight -2 1.0 0
c p weight 3 1.0 0
c p weight -3 1.0 0
c p weight 4 1.0 0
c p weight -4 1.0 0
c p weight 5 1.0 0
c p weight -5 1.0 0
c p weight 6 1.0 0
c p weight -6 1.0 0
c p weight 7 1.0 0
c p weight -7 1.0 0
c p weight 8 1.0 0
c p weight -8 1.0 0
c p weight 9 1.0 0
c p weight -9 1.0 0
c p weight 10 1.0 0
c p weight -10 1.0 0
c p semirings aspmc.semirings.probabilistic 0
c p quantify 1 2 3 4 5 6 7 8 9 10 0
c p auxilliary 1 2 3 4 5 6 7 8 9 10 0
